p tw 81 160
0 1
0 73
1 74
1 75
2 3
2 4
2 5
3 4
3 6
3 10
3 15
3 80
4 9
5 6
6 10
6 15
6 80
7 8
7 9
7 10
7 20
7 36
8 9
8 10
8 23
9 10
10 15
10 80
11 12
11 13
11 77
12 13
12 24
12 40
12 41
13 26
14 15
14 79
15 80
16 17
16 55
17 42
17 43
17 44
18 19
18 33
18 52
18 58
18 64
19 57
20 21
20 22
20 23
20 36
21 22
21 23
21 28
21 61
22 23
22 29
24 25
24 26
24 40
24 41
25 26
25 42
27 28
27 29
27 63
28 29
28 61
30 31
30 34
30 35
31 76
32 33
32 54
33 52
33 58
33 64
34 35
34 41
34 71
34 76
35 40
35 70
36 37
36 38
36 39
37 38
37 39
37 78
38 39
38 59
39 51
40 41
40 70
41 71
41 76
42 43
42 44
43 44
43 45
43 46
44 55
45 46
45 64
45 65
45 66
46 61
46 62
46 63
47 48
47 68
47 73
47 74
48 69
48 75
49 50
49 51
49 67
49 68
49 69
50 51
50 60
52 53
52 54
52 58
52 64
53 54
53 72
56 57
56 58
56 65
57 58
58 64
59 78
60 67
60 72
61 62
61 63
62 63
62 66
64 65
64 66
65 66
67 68
67 69
67 72
68 69
68 73
68 74
69 75
70 71
71 76
73 74
74 75
77 79
77 80
79 80
